sat
(model 
  (define-fun x3 () Int
    3)
  (define-fun x2 () Int
    (- 1))
  (define-fun x1 () Int
    2)
)
sat
(model 
  (define-fun x3 () Int
    3)
  (define-fun x2 () Int
    (- 1))
  (define-fun x1 () Int
    2)
)
